Route #1: 13 46 8 60 16 24 61 52 56 41
Route #2: 15 21 26 28 1 17 57
Route #3: 53 14 27 35 44 62
Route #4: 3 37 34 5 4 32
Route #5: 6 25 33 48
Route #6: 30 49 59 50 40 36 7 39 11
Route #7: 22 18 12 43 38 29
Route #8: 10 54 63 47 2 58 31 55 23
Route #9: 45 20 19 9 51 42
cost 1662.5023193359375